/*********************************************
 * OPL 22.1.1.0 Data
 * Author: Francisco Cerqueira
 * Creation Date: 17/04/2023 at 11:40:21
 *********************************************/

 costs = [6, 18, 10, 9, 4];
 utilities = [18, 16, 12, 25, 14];